NAME : RWPToy-10-1
COMMENT : Toy. 5 postmen. Max route 31304=21599.76s=6h.
TYPE : TSP
DIMENSION : 11
VEHICLES : 5
SCALE : 100000
DISTANCE : 21599.760000
EDGE_WEIGHT_TYPE : EXPLICIT
EDGE_WEIGHT_FORMAT : UPPER_ROW
EDGE_WEIGHT_SECTION
674.380795
1481.525647
279.110021
774.172188
2015.639697
910.589159
1106.429063
377.514203
617.006517
706.251112

1267.217916
945.794719
723.011248
2634.057990
1529.007452
520.351830
621.041001
721.908701
619.996702

1752.939570
1861.604407
3441.202842
2336.152303
1226.359600
1399.940723
1121.186281
1758.589860

664.596277
1772.976318
656.066446
1342.077979
508.844862
749.443452
605.197851

2168.800590
1064.424341
1021.387836
1080.375212
1275.334396
106.464546

1355.530817
3028.704286
2167.411536
2459.614496
2199.705214

1923.653748
1032.682777
1324.885738
1095.328964

1049.944193
929.310895
918.373290

295.652960
977.360665

1172.319850

DEPOT_SECTION
1
-1
EOF
